c Random generated cnf formula, satisfiable: false
p cnf 10 50
-4 -1 -8 0
1 -8 2 0
-1 8 -4 0
-5 8 -7 0
-4 5 -8 0
-3 -8 6 0
2 8 3 0
-5 -6 -10 0
-6 -4 3 0
-2 5 10 0
1 -9 -5 0
-3 9 -5 0
-8 6 -9 0
8 -10 -6 0
3 -8 -7 0
-8 1 -4 0
-7 10 -4 0
6 -9 10 0
-5 8 -2 0
-2 4 -7 0
-5 6 -7 0
8 2 -5 0
-10 8 -2 0
4 5 2 0
4 -1 2 0
1 9 -3 0
-1 -9 -5 0
3 -5 -7 0
8 1 -7 0
4 -10 2 0
7 6 9 0
-1 -3 -2 0
-9 -4 -6 0
-8 -6 7 0
-4 7 10 0
3 -5 -8 0
-1 6 4 0
-1 -2 -3 0
-5 -2 9 0
-2 4 7 0
-5 -8 6 0
8 -7 -1 0
-8 7 -4 0
8 -6 -10 0
-3 -4 5 0
-1 4 10 0
6 9 2 0
-2 -8 10 0
-10 2 -5 0
-9 7 8 0
